PARAMETER_FILE = even/even_uncomplete_graph_new/seg/par/random137.par
PROBLEM_FILE = even/even_uncomplete_graph_new/seg/mat/random137.tsp
Successes/Runs = 0/10
Cost.min = 907, Cost.avg = 907.00, Cost.max = 907
Gap.min = 0.0000%, Gap.avg = 0.0000%, Gap.max = 0.0000%
Trials.min = 1000, Trials.avg = 1000.0, Trials.max = 1000
Time.min = 0.51 sec., Time.avg = 1.69 sec., Time.max = 2.14 sec.
Time.total = 17.05 sec.
